"Ni3 Fe3 Co3 Al3"
1.0
        4.2500000000         0.0000000000         0.0000000000
       -4.2286872886         7.3734797630         0.0000000000
        0.0000000000         0.0000000000         7.2500000000
   Ni   Fe   Co   Al
    3    3    3    3
Direct
     0.000000000         0.000000000         0.000000000
     0.333333343         0.333333343         0.250000000
     0.666666687         0.166666672         0.750000000
     0.000000000         0.000000000         0.500000000
     0.333333343         0.333333343         0.750000000
     0.666666687         0.166666672         0.250000000
     0.000000000         0.500000000         0.000000000
     0.333333343         0.833333313         0.250000000
     0.666666687         0.666666687         0.750000000
     0.000000000         0.500000000         0.500000000
     0.333333343         0.833333313         0.750000000
     0.666666687         0.666666687         0.250000000
